CapLotSizing_PM/src/Instancias/TCLSHT/6i12p2m/NBA07.OUT
 CG ITER, OVMR, OVMRUB =           1   17707.6035156   17707.6015625
 CG ITER, OVMR, OVMRUB =           2   16868.4062500   17707.6015625
 CG ITER, OVMR, OVMRUB =           3   16771.0429688   17707.6015625
 CG ITER, OVMR, OVMRUB =           4   16357.4931641   17707.6015625
 CG ITER, OVMR, OVMRUB =           5   16557.7851562   17707.6015625
 CG ITER, OVMR, OVMRUB =           6   16602.5488281   17707.6015625
 CG ITER, OVMR, OVMRUB =           7   16572.5800781   17707.6015625
 CG ITER, OVMR, OVMRUB =           8   16555.9062500   17707.6015625
 CG ITER, OVMR, OVMRUB =           9   16546.9863281   17707.6015625
 CG ITER, OVMR, OVMRUB =          10   16541.2363281   17707.6015625
 CG ITER, OVMR, OVMRUB =          11   16537.8750000   17707.6015625
 CG ITER, OVMR, OVMRUB =          12   16537.5644531   17707.6015625
 CG ITER, OVMR, OVMRUB =          13   16538.9257812   17707.6015625
 CG ITER, OVMR, OVMRUB =          14   16533.9003906   17707.6015625
 CG ITER, OVMR, OVMRUB =          15   16534.0937500   17707.6015625
 CG ITER, OVMR, OVMRUB =          16   16533.2500000   17707.6015625
 CG ITER, OVMR, OVMRUB =          17   16534.0136719   17707.6015625
 CG ITER, OVMR, OVMRUB =          18   16534.0136719   17469.1230469
OVLB =   16534.0136719 OVLUB =   17469.1230469 TIME =       1.2700000
